set T := 1 2 3 4 5;
set K := 1 2 3;

param demand :=
1 15000
2 30000
3 25000
4 40000
5 27000;

param num :=
1 12
2 10
3 5;

param minlevel :=
1 850
2 1250
3 1500;

param maxlevel :=
1 2000
2 1750
3 4000;

param runcost :=
1 1000
2 2600
3 3000;

param extracost :=
1 2.0
2 1.3
3 3.0;

param startcost :=
1 2000
2 1000
3 500;

param safety_margin := 0.15;
